VRPTWMS/instances/mip/fuel/5/N5-C_DV100-C_SV25_F5_9_No_1.log

Gurobi 6.0.2 (win64) logging started 06/12/15 15:22:28

Read LP format model from file C:\MT\repository\VRPTWMS\instances\mip\fuel\N5-C_DV100-C_SV25_F5_9_No_1.lp
Reading time = 0.00 seconds
(null): 186 rows, 103 columns, 698 nonzeros
Optimize a model with 186 rows, 103 columns and 698 nonzeros
Model has 150 quadratic constraints
WARNING: Only barrier available for SOCP models
Coefficient statistics:
  Matrix range    [1e+00, 1e+02]
  Objective range [4e+00, 1e+03]
  Bounds range    [1e+00, 1e+02]
  RHS range       [1e+00, 1e+02]
Presolve removed 21 rows and 13 columns
Presolve time: 0.02s
Presolved: 459 rows, 246 columns, 2042 nonzeros
Variable types: 136 continuous, 110 integer (83 binary)
Found heuristic solution: objective 5185.6400000
Optimize a model with 459 rows, 246 columns and 2042 nonzeros
Coefficient statistics:
  Matrix range    [1e+00, 1e+02]
  Objective range [4e+00, 1e+03]
  Bounds range    [1e+00, 1e+02]
  RHS range       [1e+00, 1e+02]
Presolve removed 49 rows and 35 columns
Presolved: 410 rows, 213 columns, 1862 nonzeros


Root relaxation: objective 1.086036e+03, 31 iterations, 0.00 seconds

    Nodes    |    Current Node    |     Objective Bounds      |     Work
 Expl Unexpl |  Obj  Depth IntInf | Incumbent    BestBd   Gap | It/Node Time

     0     0 1086.03628    0   16 5185.64000 1086.03628  79.1%     -    0s
     0     0 1114.72000    0    6 5185.64000 1114.72000  78.5%     -    0s
H    0     0                    4183.9600000 1114.72000  73.4%     -    0s
     0     0 1115.43793    0   20 4183.96000 1115.43793  73.3%     -    0s
     0     0 1115.49714    0   10 4183.96000 1115.49714  73.3%     -    0s
H    0     0                    4168.8400000 1115.49714  73.2%     -    0s
     0     0 1115.58750    0   17 4168.84000 1115.58750  73.2%     -    0s
H    0     0                    3131.1900000 1115.58750  64.4%     -    0s
     0     0 1115.58750    0   18 3131.19000 1115.58750  64.4%     -    0s
     0     0 1115.58750    0   17 3131.19000 1115.58750  64.4%     -    0s
     0     2 1115.58750    0   17 3131.19000 1115.58750  64.4%     -    0s
H   94    47                    2218.0200000 1117.74000  49.6%  16.3    0s
H  161    53                    2179.2700000 1117.74000  48.7%  12.6    0s
H  402    76                    2172.6100000 1128.59000  48.1%  11.8    0s

Cutting planes:
  Learned: 8
  Gomory: 1
  Cover: 42
  Implied bound: 22
  MIR: 19
  Mod-K: 1

Explored 1050 nodes (12850 simplex iterations) in 0.33 seconds
Thread count was 2 (of 4 available processors)

Optimal solution found (tolerance 1.00e-04)
Best objective 2.172610000000e+03, best bound 2.172610000000e+03, gap 0.0%
k_c1	3.0
k_c2	12.999999999999996
k_c3	100.0
k_c4	5.9999999999999964
k_c5	9.999999999999996
k_dN	-0.0
o_1	0.0
o_2	-0.0
o_3	-0.0
o_4	0.0
o_5	-0.0
p_1	1.0
p_2	0.0
p_3	0.0
p_4	0.0
p_5	1.0
phi_c1	-0.0
phi_c2	2.0
phi_c3	2.9999999999999982
phi_c4	3.0
phi_c5	-0.0
phi_dN	-0.0
pi_c1	5.000000000000011
pi_c2	-0.0
pi_c3	-0.0
pi_c4	-0.0
pi_c5	10.00000000000001
pi_dN	-0.0
tauD_c1	80.0
tauD_c2	28.0
tauD_c3	5.0
tauD_c4	60.99999999999994
tauD_c5	39.0
tauD_d0	-0.0
tauD_dN	100.0
tauS_c1	60.0
tauS_c2	86.0
tauS_c3	86.0
tauS_c4	4.0
tauS_c5	3.0
tauS_d0	-0.0
tauS_dN	100.0
x_c1_dN	1.0
x_c2_c5	1.0
x_c3_c2	1.0
x_c4_c1	1.0
x_c5_c4	1.0
x_d0_c3	1.0
z_c1_dN	1.0
z_c5_c1	1.0
z_d0_c5	1.0
